(set-logic QF_S)
(declare-fun var0 () String)
(declare-fun var1 () String)
(declare-fun var2 () String)
(declare-fun var3 () String)
(declare-fun var4 () String)
(declare-fun var5 () String)
(declare-fun var6 () String)
(declare-fun var7 () String)
(declare-fun var8 () String)
(declare-fun var9 () String)
(declare-fun var10 () String)
(declare-fun var11 () String)
(declare-fun var12 () String)
(declare-fun var13 () String)
(declare-fun var14 () String)
(declare-fun var15 () String)
(declare-fun var16 () String)
(declare-fun var17 () String)
(declare-fun var18 () String)
(declare-fun var19 () String)
(declare-fun var20 () String)
(declare-fun var21 () String)
(declare-fun var22 () String)
(declare-fun var23 () String)
(declare-fun var24 () String)
(declare-fun var25 () String)
(declare-fun var26 () String)
(declare-fun var27 () String)
(declare-fun var28 () String)
(declare-fun var29 () String)
(declare-fun var30 () String)
(declare-fun var31 () String)
(declare-fun var32 () String)
(declare-fun var33 () String)
(declare-fun var34 () String)
(declare-fun var35 () String)
(declare-fun var36 () String)
(declare-fun var37 () String)
(declare-fun var38 () String)
(declare-fun var39 () String)
(declare-fun var40 () String)
(declare-fun var41 () String)
(declare-fun var42 () String)
(declare-fun var43 () String)
(declare-fun var44 () String)
(declare-fun var45 () String)
(declare-fun var46 () String)
(declare-fun var47 () String)
(declare-fun var48 () String)
(declare-fun var49 () String)
(declare-fun var50 () String)
(declare-fun var51 () String)
(declare-fun var52 () String)
(declare-fun var53 () String)
(declare-fun var54 () String)
(declare-fun var55 () String)
(declare-fun var56 () String)
(declare-fun var57 () String)
(declare-fun var58 () String)
(declare-fun var59 () String)
(declare-fun var60 () String)
(assert (= var0 (Concat var1 var2)))
(assert (= var2 (Concat var3 var4)))
(assert (= var4 (Concat var5 var6)))
(assert (= var6 (Concat var7 var8)))
(assert (= var8 (Concat var9 var10)))
(assert (= var10 (Concat var11 var12)))
(assert (= var12 (Concat var13 var14)))
(assert (= var14 (Concat var15 var16)))
(assert (= var16 (Concat var17 var18)))
(assert (= var18 (Concat var19 var20)))
(assert (= var20 (Concat var21 var22)))
(assert (= var22 (Concat var23 var24)))
(assert (= var24 (Concat var25 var26)))
(assert (= var26 (Concat var27 var28)))
(assert (= var28 (Concat var29 var30)))
(assert (= var30 (Concat var31 var32)))
(assert (= var32 (Concat var33 var34)))
(assert (= var34 (Concat var35 var36)))
(assert (= var36 (Concat var37 var38)))
(assert (= var38 (Concat var39 var40)))
(assert (= var40 (Concat var41 var42)))
(assert (= var42 (Concat var43 var44)))
(assert (= var44 (Concat var45 var46)))
(assert (= var46 (Concat var47 var48)))
(assert (= var48 (Concat var49 var50)))
(assert (= var50 (Concat var51 var52)))
(assert (= var52 (Concat var53 var54)))
(assert (= var54 (Concat var55 var56)))
(assert (= var56 (Concat var57 var58)))
(assert (= var58 (Concat var59 var60)))
(assert (= var0 "solution"))
(assert (= "f" (CharAt var27 153)))
(assert (= "a" (CharAt var56 961)))
(assert (= "!" (CharAt var41 877)))
(assert (= "(" (CharAt var19 329)))
(assert (= "x" (CharAt var37 458)))
(assert (= "f" (CharAt var34 483)))
(assert (= "5" (CharAt var58 216)))
(assert (= "X" (CharAt var7 314)))
(assert (= "t" (CharAt var4 264)))
(assert (= "=" (CharAt var33 170)))
(assert (= "S" (CharAt var9 809)))
(assert (= "-" (CharAt var19 464)))
(assert (= "N" (CharAt var25 688)))
(assert (= "l" (CharAt var12 214)))
(assert (= "u" (CharAt var22 454)))
(assert (= "h" (CharAt var24 442)))
(assert (= "F" (CharAt var19 280)))
(assert (= "c" (CharAt var18 144)))
(assert (= "J" (CharAt var28 85)))
(assert (= "b" (CharAt var14 7)))
(assert (= "j" (CharAt var11 22)))
(assert (= "2" (CharAt var24 364)))
(assert (= "}" (CharAt var9 362)))
(assert (= "J" (CharAt var18 140)))
(assert (= "X" (CharAt var46 826)))
(assert (= "&" (CharAt var30 370)))
(assert (= "." (CharAt var37 206)))
(assert (= "S" (CharAt var23 818)))
(assert (= "r" (CharAt var15 612)))
(assert (= "`" (CharAt var7 910)))
(assert (= "E" (CharAt var57 928)))
(assert (= "h" (CharAt var7 706)))
(assert (= "Q" (CharAt var12 90)))
(assert (= "&" (CharAt var2 624)))
(assert (= "^" (CharAt var53 194)))
(assert (= "l" (CharAt var43 746)))
(assert (= "}" (CharAt var55 310)))
(assert (= "4" (CharAt var0 794)))
(assert (= "B" (CharAt var48 95)))
(assert (= "*" (CharAt var28 523)))
(assert (= "<" (CharAt var11 125)))
(assert (= "X" (CharAt var19 293)))
(assert (= "\\" (CharAt var54 241)))
(assert (= ";" (CharAt var9 355)))
(assert (= "@" (CharAt var14 915)))
(assert (= "R" (CharAt var16 259)))
(assert (= "9" (CharAt var55 811)))
(assert (= "W" (CharAt var50 839)))
(assert (= "#" (CharAt var23 31)))
(assert (= "t" (CharAt var3 336)))
(assert (= "'" (CharAt var14 304)))
(assert (= "L" (CharAt var59 875)))
(assert (= "~" (CharAt var40 747)))
(assert (= ">" (CharAt var45 34)))
(assert (= "v" (CharAt var19 737)))
(assert (= "V" (CharAt var37 459)))
(assert (= "Z" (CharAt var11 765)))
(assert (= "+" (CharAt var8 100)))
(assert (= "." (CharAt var28 358)))
(assert (= "$" (CharAt var33 604)))
(assert (= "{" (CharAt var20 325)))
(assert (= "Z" (CharAt var2 981)))
(assert (= "J" (CharAt var3 130)))
(assert (= "b" (CharAt var12 482)))
(assert (= "u" (CharAt var18 592)))
(assert (= "9" (CharAt var42 210)))
(assert (= "H" (CharAt var1 84)))
(assert (= "[" (CharAt var50 61)))
(assert (= ")" (CharAt var13 243)))
(assert (= "A" (CharAt var23 946)))
(assert (= "@" (CharAt var16 720)))
(assert (= "T" (CharAt var14 350)))
(assert (= "." (CharAt var33 714)))
(assert (= "%" (CharAt var35 123)))
(assert (= "c" (CharAt var36 646)))
(assert (= "m" (CharAt var49 887)))
(assert (= "u" (CharAt var44 738)))
(assert (= "#" (CharAt var17 510)))
(assert (= "Z" (CharAt var52 308)))
(assert (= "@" (CharAt var20 791)))
(assert (= "5" (CharAt var27 100)))
(assert (= "1" (CharAt var51 413)))
(assert (= ">" (CharAt var26 840)))
(assert (= "R" (CharAt var3 898)))
(assert (= "3" (CharAt var12 670)))
(assert (= "V" (CharAt var47 790)))
(assert (= "-" (CharAt var15 739)))
(assert (= "8" (CharAt var32 565)))
(assert (= "?" (CharAt var26 91)))
(assert (= "Q" (CharAt var2 967)))
(assert (= "!" (CharAt var60 695)))
(assert (= "n" (CharAt var51 311)))
(assert (= "J" (CharAt var35 257)))
(assert (= "u" (CharAt var2 263)))
(assert (= "D" (CharAt var16 288)))
(assert (= "|" (CharAt var14 15)))
(assert (= "~" (CharAt var20 250)))
(assert (= "V" (CharAt var2 798)))
(assert (= "P" (CharAt var53 725)))
(assert (= "|" (CharAt var12 230)))
(assert (= "," (CharAt var2 628)))
(assert (= "+" (CharAt var53 450)))
(assert (= "l" (CharAt var11 767)))
(assert (= "K" (CharAt var24 924)))
(assert (= ":" (CharAt var10 871)))
(assert (= "U" (CharAt var43 480)))
(assert (= "x" (CharAt var33 317)))
(assert (= "[" (CharAt var32 924)))
(assert (= "w" (CharAt var44 548)))
(assert (= "A" (CharAt var3 797)))
(assert (= "0" (CharAt var6 48)))
(assert (= "(" (CharAt var7 265)))
(assert (= "G" (CharAt var15 835)))
(assert (= "T" (CharAt var54 506)))
(assert (= "4" (CharAt var19 270)))
(assert (= "." (CharAt var34 122)))
(assert (= "x" (CharAt var16 541)))
(assert (= "p" (CharAt var56 955)))
(assert (= "{" (CharAt var46 907)))
(assert (= "d" (CharAt var27 647)))
(assert (= "_" (CharAt var13 919)))
(assert (= "R" (CharAt var9 795)))
(assert (= "3" (CharAt var39 873)))
(assert (= "R" (CharAt var6 975)))
(assert (= "T" (CharAt var36 753)))
(assert (= "&" (CharAt var59 852)))
(assert (= "W" (CharAt var22 900)))
(assert (= "p" (CharAt var20 421)))
(assert (= "b" (CharAt var22 777)))
(assert (= "S" (CharAt var54 769)))
(assert (= "p" (CharAt var41 171)))
(assert (= "F" (CharAt var53 801)))
(assert (= "C" (CharAt var26 401)))
(assert (= "C" (CharAt var48 490)))
(assert (= ")" (CharAt var45 802)))
(assert (= "\"" (CharAt var4 666)))
(assert (= "T" (CharAt var24 791)))
(assert (= "f" (CharAt var13 393)))
(assert (= "P" (CharAt var42 463)))
(assert (= "3" (CharAt var27 610)))
(assert (= "W" (CharAt var2 761)))
(assert (= "+" (CharAt var3 13)))
(assert (= "z" (CharAt var34 383)))
(assert (= "+" (CharAt var48 811)))
(assert (= "]" (CharAt var0 205)))
(assert (= "v" (CharAt var45 209)))
(assert (= "}" (CharAt var22 94)))
(assert (= "[" (CharAt var17 471)))
(assert (= "N" (CharAt var5 792)))
(assert (= "\"" (CharAt var17 59)))
(assert (= "{" (CharAt var7 873)))
(assert (= "B" (CharAt var47 22)))
(assert (= ";" (CharAt var30 215)))
(assert (= "-" (CharAt var6 494)))
(assert (= "\\" (CharAt var27 163)))
(assert (= "0" (CharAt var25 813)))
(assert (= "D" (CharAt var32 531)))
(assert (= "j" (CharAt var14 181)))
(assert (= "K" (CharAt var23 596)))
(assert (= "-" (CharAt var41 556)))
(assert (= "~" (CharAt var44 442)))
(assert (= "z" (CharAt var54 526)))
(assert (= ":" (CharAt var45 788)))
(assert (= "[" (CharAt var0 242)))
(assert (= "n" (CharAt var48 975)))
(assert (= "s" (CharAt var28 493)))
(assert (= "L" (CharAt var32 191)))
(assert (= "o" (CharAt var58 807)))
(assert (= "8" (CharAt var43 145)))
(assert (= "*" (CharAt var9 662)))
(assert (= "N" (CharAt var9 509)))
(assert (= "c" (CharAt var39 988)))
(assert (= "*" (CharAt var49 625)))
(assert (= "u" (CharAt var24 475)))
(assert (= "R" (CharAt var55 946)))
(assert (= "6" (CharAt var10 312)))
(assert (= "I" (CharAt var24 397)))
(assert (= "7" (CharAt var7 127)))
(assert (= "X" (CharAt var58 481)))
(assert (= "," (CharAt var21 882)))
(assert (= "W" (CharAt var48 316)))
(assert (= "o" (CharAt var14 376)))
(assert (= "2" (CharAt var26 776)))
(assert (= "d" (CharAt var24 897)))
(assert (= "M" (CharAt var11 28)))
(assert (= "D" (CharAt var55 265)))
(assert (= "?" (CharAt var48 91)))
(assert (= "w" (CharAt var52 325)))
(assert (= "f" (CharAt var56 684)))
(assert (= ")" (CharAt var41 457)))
(assert (= "$" (CharAt var29 61)))
(assert (= "B" (CharAt var3 817)))
(assert (= "b" (CharAt var50 479)))
(assert (= "o" (CharAt var25 918)))
(assert (= "f" (CharAt var3 330)))
(assert (= "2" (CharAt var53 198)))
(assert (= "s" (CharAt var39 994)))
(assert (= "8" (CharAt var2 993)))
(assert (= "P" (CharAt var13 228)))
(assert (= "j" (CharAt var31 737)))
(assert (= "p" (CharAt var52 161)))
(assert (= "+" (CharAt var26 77)))
(assert (= "u" (CharAt var40 516)))
(assert (= "S" (CharAt var28 553)))
(assert (= "<" (CharAt var8 297)))
(assert (= "#" (CharAt var20 648)))
(assert (= "'" (CharAt var35 457)))
(assert (= "," (CharAt var10 161)))
(assert (= "I" (CharAt var35 200)))
(assert (= "K" (CharAt var55 723)))
(assert (= "Y" (CharAt var24 24)))
(assert (= "y" (CharAt var55 178)))
(assert (= "T" (CharAt var33 308)))
(assert (= "b" (CharAt var52 268)))
(assert (= "." (CharAt var27 685)))
(assert (= "M" (CharAt var34 180)))
(assert (= "6" (CharAt var12 516)))
(assert (= "\"" (CharAt var3 309)))
(assert (= "x" (CharAt var6 602)))
(assert (= "|" (CharAt var6 188)))
(assert (= "[" (CharAt var38 871)))
(assert (= "p" (CharAt var44 671)))
(assert (= "$" (CharAt var58 384)))
(assert (= "\"" (CharAt var9 182)))
(assert (= "{" (CharAt var3 504)))
(assert (= "." (CharAt var18 311)))
(assert (= "^" (CharAt var9 38)))
(assert (= "L" (CharAt var8 637)))
(assert (= "v" (CharAt var20 653)))
(assert (= "2" (CharAt var57 779)))
(assert (= "5" (CharAt var26 717)))
(assert (= "M" (CharAt var54 702)))
(assert (= "M" (CharAt var33 212)))
(assert (= "t" (CharAt var41 447)))
(assert (= "/" (CharAt var50 772)))
(assert (= "h" (CharAt var19 905)))
(assert (= "Q" (CharAt var33 800)))
(assert (= "F" (CharAt var47 571)))
(assert (= "8" (CharAt var4 244)))
(assert (= "L" (CharAt var43 326)))
(assert (= "1" (CharAt var30 569)))
(assert (= "u" (CharAt var57 245)))
(assert (= "#" (CharAt var48 151)))
(assert (= "r" (CharAt var26 979)))
(assert (= "|" (CharAt var35 571)))
(assert (= "P" (CharAt var36 153)))
(assert (= "H" (CharAt var15 364)))
(assert (= "'" (CharAt var41 302)))
(assert (= "(" (CharAt var18 996)))
(assert (= "5" (CharAt var22 338)))
(assert (= "(" (CharAt var8 427)))
(assert (= "-" (CharAt var3 791)))
(assert (= "." (CharAt var2 265)))
(assert (= "i" (CharAt var30 411)))
(assert (= "E" (CharAt var36 118)))
(assert (= "'" (CharAt var1 15)))
(assert (= "}" (CharAt var36 132)))
(assert (= "Z" (CharAt var7 210)))
(assert (= "]" (CharAt var8 839)))
(assert (= "A" (CharAt var14 348)))
(assert (= "]" (CharAt var19 773)))
(assert (= "Z" (CharAt var14 151)))
(assert (= "~" (CharAt var60 629)))
(assert (= "I" (CharAt var58 516)))
(assert (= "t" (CharAt var36 402)))
(assert (= "H" (CharAt var1 966)))
(assert (= "5" (CharAt var54 117)))
(assert (= "(" (CharAt var30 596)))
(assert (= "6" (CharAt var25 796)))
(assert (= "z" (CharAt var57 205)))
(assert (= "`" (CharAt var55 354)))
(assert (= ";" (CharAt var2 963)))
(assert (= "s" (CharAt var35 489)))
(assert (= "K" (CharAt var29 713)))
(assert (= "}" (CharAt var10 141)))
(assert (= "R" (CharAt var47 262)))
(assert (= "[" (CharAt var35 115)))
(assert (= "w" (CharAt var1 324)))
(assert (= "T" (CharAt var26 96)))
(assert (= "\\" (CharAt var45 218)))
(assert (= "K" (CharAt var4 913)))
(assert (= ":" (CharAt var36 357)))
(assert (= "Y" (CharAt var32 754)))
(assert (= "|" (CharAt var50 662)))
(assert (= "8" (CharAt var33 839)))
(assert (= "T" (CharAt var48 604)))
(assert (= "4" (CharAt var55 346)))
(assert (= "^" (CharAt var13 11)))
(assert (= "R" (CharAt var51 606)))
(assert (= "C" (CharAt var2 979)))
(assert (= "7" (CharAt var50 791)))
(assert (= "H" (CharAt var0 51)))
(assert (= "}" (CharAt var12 123)))
(assert (= "L" (CharAt var13 28)))
(assert (= "\"" (CharAt var39 24)))
(assert (= "p" (CharAt var11 296)))
(assert (= "g" (CharAt var46 633)))
(assert (= "~" (CharAt var14 391)))
(assert (= "{" (CharAt var49 762)))
(assert (= "d" (CharAt var54 78)))
(assert (= "(" (CharAt var34 136)))
(assert (= "w" (CharAt var58 764)))
(assert (= "d" (CharAt var3 754)))
(assert (= "(" (CharAt var39 331)))
(assert (= "7" (CharAt var3 843)))
(assert (= "6" (CharAt var35 346)))
(assert (= ">" (CharAt var17 482)))
(assert (= "]" (CharAt var50 394)))
(assert (= "o" (CharAt var0 374)))
(assert (= "v" (CharAt var6 118)))
(assert (= "O" (CharAt var23 390)))
(assert (= "J" (CharAt var40 928)))
(assert (= "\\" (CharAt var56 166)))
(assert (= "*" (CharAt var40 365)))
(assert (= "E" (CharAt var55 933)))
(assert (= "s" (CharAt var13 203)))
(assert (= "d" (CharAt var17 966)))
(assert (= "P" (CharAt var1 729)))
(assert (= "S" (CharAt var42 66)))
(assert (= "]" (CharAt var27 115)))
(assert (= "q" (CharAt var1 785)))
(assert (= "T" (CharAt var33 287)))
(assert (= "<" (CharAt var36 25)))
(assert (= "r" (CharAt var16 329)))
(assert (= "/" (CharAt var14 634)))
(assert (= "`" (CharAt var1 5)))
(assert (= "m" (CharAt var1 987)))
(assert (= "C" (CharAt var8 238)))
(assert (= "m" (CharAt var48 314)))
(assert (= "+" (CharAt var48 320)))
(assert (= "x" (CharAt var10 125)))
(assert (= "O" (CharAt var0 643)))
(assert (= "8" (CharAt var48 841)))
(assert (= "D" (CharAt var1 702)))
(assert (= "B" (CharAt var53 533)))
(assert (= "&" (CharAt var47 234)))
(assert (= "g" (CharAt var16 678)))
(assert (= ")" (CharAt var17 349)))
(assert (= "s" (CharAt var38 14)))
(assert (= ")" (CharAt var28 270)))
(assert (= "5" (CharAt var54 306)))
(assert (= "2" (CharAt var43 524)))
(assert (= "F" (CharAt var37 484)))
(assert (= "y" (CharAt var54 565)))
(assert (= "3" (CharAt var3 811)))
(assert (= "I" (CharAt var51 56)))
(assert (= "U" (CharAt var16 571)))
(assert (= "m" (CharAt var17 622)))
(assert (= "W" (CharAt var26 933)))
(assert (= "\"" (CharAt var12 81)))
(assert (= "u" (CharAt var8 51)))
(assert (= "$" (CharAt var47 237)))
(assert (= "x" (CharAt var53 574)))
(assert (= "c" (CharAt var27 19)))
(assert (= "Q" (CharAt var33 219)))
(assert (= "t" (CharAt var35 578)))
(assert (= "|" (CharAt var4 271)))
(assert (= "R" (CharAt var20 615)))
(assert (= "m" (CharAt var19 817)))
(assert (= "@" (CharAt var19 673)))
(assert (= "6" (CharAt var23 995)))
(assert (= "]" (CharAt var54 724)))
(assert (= "7" (CharAt var43 629)))
(assert (= "4" (CharAt var33 344)))
(assert (= "5" (CharAt var42 278)))
(assert (= "$" (CharAt var55 737)))
(assert (= "7" (CharAt var0 24)))
(assert (= "7" (CharAt var38 226)))
(assert (= "7" (CharAt var36 895)))
(assert (= "G" (CharAt var17 987)))
(assert (= "}" (CharAt var2 18)))
(assert (= "\\" (CharAt var10 907)))
(assert (= "j" (CharAt var22 271)))
(assert (= "-" (CharAt var45 764)))
(assert (= "l" (CharAt var60 762)))
(assert (= "@" (CharAt var2 968)))
(assert (= "'" (CharAt var32 242)))
(assert (= "\"" (CharAt var16 747)))
(assert (= "v" (CharAt var57 753)))
(assert (= "g" (CharAt var32 297)))
(assert (= "4" (CharAt var18 941)))
(assert (= "g" (CharAt var37 171)))
(assert (= "g" (CharAt var32 302)))
(assert (= "f" (CharAt var39 388)))
(assert (= "L" (CharAt var35 452)))
(assert (= "s" (CharAt var42 0)))
(assert (= "B" (CharAt var3 459)))
(assert (= "[" (CharAt var48 509)))
(assert (= "Q" (CharAt var58 623)))
(assert (= "0" (CharAt var50 191)))
(assert (= ">" (CharAt var46 995)))
(assert (= "!" (CharAt var28 672)))
(assert (= "H" (CharAt var40 617)))
(assert (= "E" (CharAt var25 722)))
(assert (= "'" (CharAt var12 171)))
(assert (= "L" (CharAt var45 619)))
(assert (= "}" (CharAt var24 17)))
(assert (= "`" (CharAt var29 616)))
(assert (= "e" (CharAt var18 566)))
(assert (= "C" (CharAt var28 405)))
(assert (= "6" (CharAt var1 46)))
(assert (= "n" (CharAt var57 499)))
(assert (= "n" (CharAt var32 930)))
(assert (= "x" (CharAt var41 6)))
(assert (= "~" (CharAt var32 854)))
(assert (= "N" (CharAt var6 226)))
(assert (= "r" (CharAt var2 384)))
(assert (= "f" (CharAt var39 640)))
(assert (= "a" (CharAt var33 234)))
(assert (= "/" (CharAt var8 855)))
(assert (= "b" (CharAt var10 486)))
(assert (= "]" (CharAt var43 614)))
(assert (= "*" (CharAt var59 468)))
(assert (= "Q" (CharAt var17 705)))
(assert (= "I" (CharAt var49 584)))
(assert (= "\\" (CharAt var27 937)))
(assert (= "W" (CharAt var22 655)))
(assert (= "@" (CharAt var30 58)))
(assert (= "7" (CharAt var55 822)))
(assert (= "`" (CharAt var31 161)))
(assert (= "L" (CharAt var1 950)))
(assert (= "6" (CharAt var47 932)))
(assert (= "U" (CharAt var43 619)))
(assert (= "N" (CharAt var54 475)))
(assert (= "4" (CharAt var27 660)))
(assert (= "-" (CharAt var1 83)))
(assert (= "C" (CharAt var14 148)))
(assert (= "}" (CharAt var14 329)))
(assert (= "u" (CharAt var15 158)))
(assert (= "%" (CharAt var27 118)))
(assert (= "q" (CharAt var27 912)))
(assert (= "W" (CharAt var53 245)))
(assert (= "@" (CharAt var4 919)))
(assert (= "b" (CharAt var28 240)))
(assert (= "C" (CharAt var25 130)))
(assert (= "<" (CharAt var21 443)))
(assert (= "i" (CharAt var40 423)))
(assert (= "D" (CharAt var41 192)))
(assert (= "A" (CharAt var50 976)))
(assert (= "T" (CharAt var48 67)))
(assert (= "B" (CharAt var38 983)))
(assert (= "u" (CharAt var24 446)))
(assert (= "u" (CharAt var8 425)))
(assert (= "L" (CharAt var49 517)))
(assert (= "p" (CharAt var22 583)))
(assert (= "e" (CharAt var42 73)))
(assert (= "t" (CharAt var4 687)))
(assert (= "|" (CharAt var32 329)))
(assert (= "2" (CharAt var35 574)))
(assert (= "r" (CharAt var4 984)))
(assert (= "'" (CharAt var52 417)))
(assert (= "0" (CharAt var55 503)))
(assert (= "3" (CharAt var9 617)))
(assert (= "y" (CharAt var8 996)))
(assert (= "P" (CharAt var0 586)))
(assert (= "|" (CharAt var33 959)))
(assert (= "#" (CharAt var18 101)))
(assert (= "L" (CharAt var4 430)))
(assert (= "y" (CharAt var59 745)))
(assert (= "(" (CharAt var54 926)))
(assert (= "&" (CharAt var50 487)))
(assert (= "9" (CharAt var7 592)))
(assert (= "2" (CharAt var52 352)))
(assert (= "]" (CharAt var20 145)))
(assert (= "S" (CharAt var47 125)))
(assert (= "J" (CharAt var55 936)))
(assert (= "S" (CharAt var37 258)))
(assert (= "\"" (CharAt var2 913)))
(assert (= "X" (CharAt var48 303)))
(assert (= "{" (CharAt var29 39)))
(assert (= "D" (CharAt var22 177)))
(assert (= "O" (CharAt var55 301)))
(assert (= "'" (CharAt var23 568)))
(assert (= "q" (CharAt var12 926)))
(assert (= "I" (CharAt var14 174)))
(assert (= "&" (CharAt var59 839)))
(assert (= "," (CharAt var6 558)))
(assert (= "h" (CharAt var18 711)))
(assert (= "s" (CharAt var2 929)))
(assert (= "J" (CharAt var44 832)))
(assert (= "u" (CharAt var3 774)))
(assert (= "g" (CharAt var17 867)))
(assert (= "l" (CharAt var53 796)))
(assert (= "I" (CharAt var60 47)))
(assert (= "h" (CharAt var22 345)))
(assert (= "}" (CharAt var9 557)))
(assert (= "|" (CharAt var6 752)))
(assert (= "O" (CharAt var2 528)))
(assert (= "X" (CharAt var36 722)))
(assert (= "#" (CharAt var8 252)))
(assert (= "0" (CharAt var27 324)))
(assert (= "V" (CharAt var30 948)))
(assert (= "'" (CharAt var26 793)))
(assert (= "!" (CharAt var5 877)))
(assert (= "+" (CharAt var15 426)))
(assert (= "t" (CharAt var60 734)))
(assert (= "B" (CharAt var50 55)))
(assert (= "`" (CharAt var46 920)))
(assert (= "l" (CharAt var12 978)))
(assert (= "@" (CharAt var51 797)))
(assert (= "+" (CharAt var16 270)))
(assert (= "A" (CharAt var60 282)))
(assert (= ")" (CharAt var27 544)))
(assert (= "H" (CharAt var24 141)))
(assert (= "=" (CharAt var3 990)))
(assert (= "!" (CharAt var28 105)))
(assert (= "_" (CharAt var34 776)))
(assert (= "X" (CharAt var16 111)))
(assert (= "V" (CharAt var45 851)))
(assert (= "#" (CharAt var7 91)))
(assert (= "1" (CharAt var56 607)))
(assert (= "a" (CharAt var16 94)))
(assert (= "K" (CharAt var55 853)))
(assert (= ":" (CharAt var38 880)))
(assert (= "[" (CharAt var35 226)))
(assert (= "~" (CharAt var14 245)))
(assert (= "p" (CharAt var55 56)))
(assert (= "e" (CharAt var15 103)))
(assert (= "w" (CharAt var51 43)))
(assert (= "@" (CharAt var42 390)))
(assert (= "H" (CharAt var45 842)))
(assert (= "i" (CharAt var21 722)))
(assert (= "I" (CharAt var21 693)))
(assert (= "p" (CharAt var43 342)))
(assert (= "z" (CharAt var22 479)))
(assert (= "7" (CharAt var2 501)))
(assert (= "(" (CharAt var10 431)))
(assert (= "p" (CharAt var60 895)))
(assert (= "z" (CharAt var54 293)))
(assert (= "m" (CharAt var0 909)))
(assert (= "J" (CharAt var21 102)))
(assert (= ":" (CharAt var51 876)))
(assert (= "\\" (CharAt var47 272)))
(assert (= "s" (CharAt var11 753)))
(assert (= "." (CharAt var45 883)))
(assert (= "|" (CharAt var58 570)))
(assert (= "J" (CharAt var11 304)))
(assert (= "h" (CharAt var22 272)))
(assert (= "G" (CharAt var10 251)))
(assert (= "n" (CharAt var0 682)))
(assert (= "R" (CharAt var46 476)))
(assert (= "d" (CharAt var49 188)))
(assert (= "Y" (CharAt var35 67)))
(assert (= "+" (CharAt var19 918)))
(assert (= "B" (CharAt var2 609)))
(assert (= "." (CharAt var48 705)))
(assert (= "R" (CharAt var0 13)))
(assert (= "l" (CharAt var30 407)))
(assert (= "N" (CharAt var46 434)))
(assert (= "e" (CharAt var50 928)))
(assert (= "t" (CharAt var44 741)))
(assert (= "|" (CharAt var46 767)))
(assert (= "g" (CharAt var5 984)))
(assert (= "j" (CharAt var35 583)))
(assert (= ">" (CharAt var15 894)))
(assert (= "'" (CharAt var58 605)))
(assert (= "I" (CharAt var39 478)))
(assert (= "z" (CharAt var60 252)))
(assert (= ":" (CharAt var58 388)))
(assert (= "V" (CharAt var43 146)))
(assert (= "%" (CharAt var40 299)))
(assert (= "#" (CharAt var9 593)))
(assert (= "!" (CharAt var42 538)))
(assert (= "<" (CharAt var53 505)))
(assert (= "x" (CharAt var27 303)))
(assert (= "i" (CharAt var5 766)))
(assert (= "u" (CharAt var22 533)))
(assert (= "T" (CharAt var32 880)))
(assert (= "C" (CharAt var37 59)))
(assert (= "u" (CharAt var41 511)))
(assert (= "}" (CharAt var19 80)))
(assert (= "," (CharAt var41 901)))
(assert (= "I" (CharAt var54 462)))
(assert (= "p" (CharAt var50 440)))
(assert (= "J" (CharAt var54 150)))
(assert (= "Z" (CharAt var46 287)))
(assert (= "(" (CharAt var6 845)))
(assert (= "L" (CharAt var50 48)))
(assert (= "{" (CharAt var3 739)))
(assert (= "V" (CharAt var33 242)))
(assert (= "r" (CharAt var17 806)))
(assert (= "x" (CharAt var30 392)))
(assert (= "\"" (CharAt var36 876)))
(assert (= "c" (CharAt var19 211)))
(assert (= "_" (CharAt var0 757)))
(assert (= "5" (CharAt var13 501)))
(assert (= "G" (CharAt var59 909)))
(assert (= "|" (CharAt var38 628)))
(assert (= "&" (CharAt var34 38)))
(assert (= "5" (CharAt var55 259)))
(assert (= "j" (CharAt var48 690)))
(assert (= "i" (CharAt var31 507)))
(assert (= "I" (CharAt var4 499)))
(assert (= "g" (CharAt var11 895)))
(assert (= ">" (CharAt var18 696)))
(assert (= "E" (CharAt var30 636)))
(assert (= "{" (CharAt var46 589)))
(assert (= "3" (CharAt var19 696)))
(assert (= "?" (CharAt var28 960)))
(assert (= "h" (CharAt var13 295)))
(assert (= "n" (CharAt var19 158)))
(assert (= "f" (CharAt var56 885)))
(assert (= "U" (CharAt var18 450)))
(assert (= "P" (CharAt var18 982)))
(assert (= "#" (CharAt var54 420)))
(assert (= "k" (CharAt var8 737)))
(assert (= "h" (CharAt var57 299)))
(assert (= "n" (CharAt var8 749)))
(assert (= "$" (CharAt var26 661)))
(assert (= "r" (CharAt var56 489)))
(assert (= "d" (CharAt var34 300)))
(assert (= "'" (CharAt var42 775)))
(assert (= "M" (CharAt var60 55)))
(assert (= "6" (CharAt var45 305)))
(assert (= "J" (CharAt var40 752)))
(assert (= "," (CharAt var28 748)))
(assert (= "B" (CharAt var14 999)))
(assert (= "4" (CharAt var7 956)))
(assert (= "f" (CharAt var54 356)))
(assert (= "C" (CharAt var45 326)))
(assert (= "K" (CharAt var43 582)))
(assert (= "T" (CharAt var43 205)))
(assert (= "E" (CharAt var21 159)))
(assert (= ":" (CharAt var0 351)))
(assert (= "h" (CharAt var20 515)))
(assert (= "-" (CharAt var7 618)))
(assert (= "8" (CharAt var1 130)))
(assert (= "t" (CharAt var9 293)))
(assert (= "f" (CharAt var25 798)))
(assert (= "'" (CharAt var1 755)))
(assert (= "Y" (CharAt var29 18)))
(assert (= "d" (CharAt var14 610)))
(assert (= "g" (CharAt var12 92)))
(assert (= "5" (CharAt var26 518)))
(assert (= "-" (CharAt var0 717)))
(assert (= "'" (CharAt var42 455)))
(assert (= ":" (CharAt var33 342)))
(assert (= "0" (CharAt var53 105)))
(assert (= "t" (CharAt var4 760)))
(assert (= ">" (CharAt var38 102)))
(assert (= "t" (CharAt var33 711)))
(assert (= "D" (CharAt var6 618)))
(assert (= "*" (CharAt var50 316)))
(assert (= "r" (CharAt var16 247)))
(assert (= "b" (CharAt var4 449)))
(assert (= "w" (CharAt var34 921)))
(assert (= "y" (CharAt var32 875)))
(assert (= "0" (CharAt var16 733)))
(assert (= "}" (CharAt var39 27)))
(assert (= "\\" (CharAt var50 820)))
(assert (= "2" (CharAt var52 276)))
(assert (= "W" (CharAt var23 130)))
(assert (= "g" (CharAt var6 451)))
(assert (= "I" (CharAt var49 928)))
(assert (= "l" (CharAt var53 695)))
(assert (= "#" (CharAt var10 352)))
(assert (= "f" (CharAt var19 585)))
(assert (= "U" (CharAt var45 37)))
(assert (= "H" (CharAt var18 992)))
(assert (= "}" (CharAt var2 15)))
(assert (= "|" (CharAt var46 270)))
(assert (= "," (CharAt var51 446)))
(assert (= "4" (CharAt var28 681)))
(assert (= "t" (CharAt var15 160)))
(assert (= "u" (CharAt var58 355)))
(assert (= "i" (CharAt var26 686)))
(assert (= "3" (CharAt var13 184)))
(assert (= "7" (CharAt var60 264)))
(assert (= "?" (CharAt var43 368)))
(assert (= "]" (CharAt var36 20)))
(assert (= "{" (CharAt var14 352)))
(assert (= "}" (CharAt var40 238)))
(assert (= "J" (CharAt var20 549)))
(assert (= "v" (CharAt var46 120)))
(assert (= "@" (CharAt var50 726)))
(assert (= "A" (CharAt var40 665)))
(assert (= "]" (CharAt var24 972)))
(assert (= "," (CharAt var1 636)))
(assert (= "H" (CharAt var58 262)))
(assert (= "&" (CharAt var33 579)))
(assert (= "s" (CharAt var39 697)))
(assert (= "0" (CharAt var39 17)))
(assert (= "j" (CharAt var24 312)))
(assert (= "`" (CharAt var8 345)))
(assert (= "2" (CharAt var38 852)))
(assert (= "_" (CharAt var20 701)))
(assert (= "e" (CharAt var10 664)))
(assert (= "C" (CharAt var43 780)))
(assert (= "D" (CharAt var19 993)))
(assert (= "H" (CharAt var52 781)))
(assert (= "!" (CharAt var2 485)))
(assert (= "D" (CharAt var29 148)))
(assert (= "T" (CharAt var33 857)))
(assert (= "2" (CharAt var22 699)))
(assert (= "E" (CharAt var22 500)))
(assert (= "\"" (CharAt var16 178)))
(assert (= "?" (CharAt var36 715)))
(assert (= "b" (CharAt var39 501)))
(assert (= "~" (CharAt var21 355)))
(assert (= "L" (CharAt var30 203)))
(assert (= "v" (CharAt var53 735)))
(assert (= "D" (CharAt var47 446)))
(assert (= "." (CharAt var5 655)))
(assert (= "s" (CharAt var60 236)))
(assert (= "T" (CharAt var58 191)))
(assert (= "u" (CharAt var42 43)))
(assert (= "B" (CharAt var42 60)))
(assert (= "y" (CharAt var30 871)))
(assert (= "?" (CharAt var7 659)))
(assert (= "3" (CharAt var59 257)))
(assert (= "=" (CharAt var25 161)))
(assert (= "g" (CharAt var30 519)))
(assert (= "f" (CharAt var34 556)))
(assert (= "W" (CharAt var27 833)))
(assert (= "," (CharAt var39 127)))
(assert (= ">" (CharAt var54 714)))
(assert (= "8" (CharAt var36 353)))
(assert (= "J" (CharAt var53 428)))
(assert (= "," (CharAt var51 249)))
(assert (= "&" (CharAt var9 58)))
(assert (= "2" (CharAt var27 759)))
(check-sat)
(get-model)